510069
510069
506712
506613
506613
496032
494753
486945
472708
472708
472708
449817
449817
449817
449817
449817
449817
449817
447520
443217
443217
443217
443217
443217
440062
435364
435364
435364
435364
435364
435364
435364
435364
435364
429725
429725
429725
429725
427656
427656
427656
427656
424117
424117
424117
424027
424027
421313
421313
406232
406232
406232
406232
406232
406232
406232
406232
406232
398456
398456
398202
397778
397778
397778
397778
394081
394081
394081
394081
388180
388180
381050
381050
381050
380619
380619
380619
380619
380619
374513
374513
374513
372249
372249
372249
372249
372249
372249
371919
368560
368560
368560
367156
367156
367156
367156
363254
363254
363076
361572
